p edge 141 1253
v 1 313
v 2 652
v 3 455
v 4 220
v 5 423
v 6 237
v 7 244
v 8 376
v 9 446
v 10 228
v 11 403
v 12 298
v 13 446
v 14 313
v 15 581
v 16 317
v 17 357
v 18 334
v 19 533
v 20 312
v 21 608
v 22 558
v 23 276
v 24 234
v 25 593
v 26 324
v 27 554
v 28 499
v 29 274
v 30 670
v 31 276
v 32 513
v 33 318
v 34 575
v 35 547
v 36 255
v 37 213
v 38 488
v 39 575
v 40 623
v 41 321
v 42 250
v 43 206
v 44 501
v 45 635
v 46 279
v 47 557
v 48 450
v 49 618
v 50 526
v 51 575
v 52 667
v 53 637
v 54 375
v 55 617
v 56 457
v 57 417
v 58 235
v 59 588
v 60 431
v 61 547
v 62 282
v 63 561
v 64 241
v 65 375
v 66 287
v 67 373
v 68 272
v 69 341
v 70 597
v 71 292
v 72 669
v 73 211
v 74 303
v 75 384
v 76 202
v 77 405
v 78 412
v 79 526
v 80 399
v 81 271
v 82 434
v 83 339
v 84 593
v 85 491
v 86 701
v 87 263
v 88 527
v 89 380
v 90 483
v 91 350
v 92 283
v 93 370
v 94 277
v 95 536
v 96 531
v 97 447
v 98 522
v 99 437
v 100 212
v 101 209
v 102 471
v 103 293
v 104 255
v 105 640
v 106 491
v 107 587
v 108 681
v 109 615
v 110 693
v 111 556
v 112 408
v 113 237
v 114 342
v 115 498
v 116 305
v 117 561
v 118 609
v 119 323
v 120 652
v 121 637
v 122 535
v 123 682
v 124 332
v 125 538
v 126 531
v 127 457
v 128 549
v 129 319
v 130 546
v 131 590
v 132 228
v 133 348
v 134 412
v 135 665
v 136 653
v 137 628
v 138 317
v 139 696
v 140 300
v 141 517
e 1 2
e 1 3
e 1 4
e 1 5
e 1 6
e 1 7
e 1 8
e 1 9
e 1 10
e 1 11
e 1 12
e 1 22
e 1 57
e 1 68
e 1 78
e 1 93
e 1 106
e 1 116
e 1 125
e 1 135
e 2 3
e 2 4
e 2 5
e 2 6
e 2 7
e 2 8
e 2 9
e 2 10
e 2 11
e 2 13
e 2 49
e 2 59
e 2 70
e 2 79
e 2 88
e 2 107
e 2 118
e 2 126
e 3 4
e 3 5
e 3 6
e 3 7
e 3 8
e 3 9
e 3 10
e 3 11
e 3 14
e 3 32
e 3 50
e 3 80
e 3 89
e 3 94
e 3 108
e 3 119
e 3 127
e 3 137
e 4 5
e 4 6
e 4 7
e 4 8
e 4 9
e 4 10
e 4 11
e 4 33
e 4 42
e 4 60
e 4 90
e 4 95
e 4 109
e 4 128
e 5 6
e 5 7
e 5 8
e 5 9
e 5 10
e 5 11
e 5 15
e 5 23
e 5 34
e 5 61
e 5 96
e 5 129
e 6 7
e 6 8
e 6 9
e 6 10
e 6 11
e 6 16
e 6 24
e 6 35
e 6 43
e 6 51
e 6 62
e 6 81
e 6 97
e 6 110
e 6 120
e 6 138
e 7 8
e 7 9
e 7 10
e 7 11
e 7 17
e 7 25
e 7 36
e 7 44
e 7 52
e 7 63
e 7 71
e 7 82
e 7 98
e 8 9
e 8 10
e 8 11
e 8 18
e 8 26
e 8 38
e 8 54
e 8 64
e 8 73
e 8 84
e 8 100
e 8 111
e 8 121
e 8 131
e 9 10
e 9 11
e 9 19
e 9 74
e 9 101
e 9 112
e 9 122
e 9 139
e 10 11
e 10 20
e 10 27
e 10 39
e 10 45
e 10 65
e 10 75
e 10 85
e 10 91
e 10 102
e 10 113
e 11 21
e 11 28
e 11 40
e 11 55
e 11 66
e 11 76
e 11 86
e 11 92
e 11 103
e 11 114
e 11 123
e 11 132
e 11 140
e 12 13
e 12 14
e 12 15
e 12 16
e 12 17
e 12 18
e 12 19
e 12 20
e 12 21
e 12 22
e 12 57
e 12 68
e 12 78
e 12 93
e 12 106
e 12 116
e 12 125
e 12 135
e 13 14
e 13 15
e 13 16
e 13 17
e 13 18
e 13 19
e 13 20
e 13 21
e 13 49
e 13 59
e 13 70
e 13 79
e 13 88
e 13 107
e 13 118
e 13 126
e 14 15
e 14 16
e 14 17
e 14 18
e 14 19
e 14 20
e 14 21
e 14 32
e 14 50
e 14 80
e 14 89
e 14 94
e 14 108
e 14 119
e 14 127
e 14 137
e 15 16
e 15 17
e 15 18
e 15 19
e 15 20
e 15 21
e 15 23
e 15 34
e 15 61
e 15 96
e 15 129
e 16 17
e 16 18
e 16 19
e 16 20
e 16 21
e 16 24
e 16 35
e 16 43
e 16 51
e 16 62
e 16 81
e 16 97
e 16 110
e 16 120
e 16 138
e 17 18
e 17 19
e 17 20
e 17 21
e 17 25
e 17 36
e 17 44
e 17 52
e 17 63
e 17 71
e 17 82
e 17 98
e 18 19
e 18 20
e 18 21
e 18 26
e 18 38
e 18 54
e 18 64
e 18 73
e 18 84
e 18 100
e 18 111
e 18 121
e 18 131
e 19 20
e 19 21
e 19 74
e 19 101
e 19 112
e 19 122
e 19 139
e 20 21
e 20 27
e 20 39
e 20 45
e 20 65
e 20 75
e 20 85
e 20 91
e 20 102
e 20 113
e 21 28
e 21 40
e 21 55
e 21 66
e 21 76
e 21 86
e 21 92
e 21 103
e 21 114
e 21 123
e 21 132
e 21 140
e 22 23
e 22 24
e 22 25
e 22 26
e 22 27
e 22 28
e 22 29
e 22 30
e 22 57
e 22 68
e 22 78
e 22 93
e 22 106
e 22 116
e 22 125
e 22 135
e 23 24
e 23 25
e 23 26
e 23 27
e 23 28
e 23 29
e 23 30
e 23 34
e 23 61
e 23 96
e 23 129
e 24 25
e 24 26
e 24 27
e 24 28
e 24 29
e 24 30
e 24 35
e 24 43
e 24 51
e 24 62
e 24 81
e 24 97
e 24 110
e 24 120
e 24 138
e 25 26
e 25 27
e 25 28
e 25 29
e 25 30
e 25 36
e 25 44
e 25 52
e 25 63
e 25 71
e 25 82
e 25 98
e 26 27
e 26 28
e 26 29
e 26 30
e 26 38
e 26 54
e 26 64
e 26 73
e 26 84
e 26 100
e 26 111
e 26 121
e 26 131
e 27 28
e 27 29
e 27 30
e 27 39
e 27 45
e 27 65
e 27 75
e 27 85
e 27 91
e 27 102
e 27 113
e 28 29
e 28 30
e 28 40
e 28 55
e 28 66
e 28 76
e 28 86
e 28 92
e 28 103
e 28 114
e 28 123
e 28 132
e 28 140
e 29 30
e 29 41
e 29 46
e 29 104
e 29 115
e 29 133
e 30 47
e 30 56
e 30 67
e 30 77
e 30 105
e 30 124
e 30 134
e 30 141
e 31 32
e 31 33
e 31 34
e 31 35
e 31 36
e 31 37
e 31 38
e 31 39
e 31 40
e 31 41
e 31 48
e 31 58
e 31 69
e 31 87
e 31 117
e 31 136
e 32 33
e 32 34
e 32 35
e 32 36
e 32 37
e 32 38
e 32 39
e 32 40
e 32 41
e 32 50
e 32 80
e 32 89
e 32 94
e 32 108
e 32 119
e 32 127
e 32 137
e 33 34
e 33 35
e 33 36
e 33 37
e 33 38
e 33 39
e 33 40
e 33 41
e 33 42
e 33 60
e 33 90
e 33 95
e 33 109
e 33 128
e 34 35
e 34 36
e 34 37
e 34 38
e 34 39
e 34 40
e 34 41
e 34 61
e 34 96
e 34 129
e 35 36
e 35 37
e 35 38
e 35 39
e 35 40
e 35 41
e 35 43
e 35 51
e 35 62
e 35 81
e 35 97
e 35 110
e 35 120
e 35 138
e 36 37
e 36 38
e 36 39
e 36 40
e 36 41
e 36 44
e 36 52
e 36 63
e 36 71
e 36 82
e 36 98
e 37 38
e 37 39
e 37 40
e 37 41
e 37 53
e 37 72
e 37 83
e 37 99
e 37 130
e 38 39
e 38 40
e 38 41
e 38 54
e 38 64
e 38 73
e 38 84
e 38 100
e 38 111
e 38 121
e 38 131
e 39 40
e 39 41
e 39 45
e 39 65
e 39 75
e 39 85
e 39 91
e 39 102
e 39 113
e 40 41
e 40 55
e 40 66
e 40 76
e 40 86
e 40 92
e 40 103
e 40 114
e 40 123
e 40 132
e 40 140
e 41 46
e 41 104
e 41 115
e 41 133
e 42 43
e 42 44
e 42 45
e 42 46
e 42 47
e 42 60
e 42 90
e 42 95
e 42 109
e 42 128
e 43 44
e 43 45
e 43 46
e 43 47
e 43 51
e 43 62
e 43 81
e 43 97
e 43 110
e 43 120
e 43 138
e 44 45
e 44 46
e 44 47
e 44 52
e 44 63
e 44 71
e 44 82
e 44 98
e 45 46
e 45 47
e 45 65
e 45 75
e 45 85
e 45 91
e 45 102
e 45 113
e 46 47
e 46 104
e 46 115
e 46 133
e 47 56
e 47 67
e 47 77
e 47 105
e 47 124
e 47 134
e 47 141
e 48 49
e 48 50
e 48 51
e 48 52
e 48 53
e 48 54
e 48 55
e 48 56
e 48 58
e 48 69
e 48 87
e 48 117
e 48 136
e 49 50
e 49 51
e 49 52
e 49 53
e 49 54
e 49 55
e 49 56
e 49 59
e 49 70
e 49 79
e 49 88
e 49 107
e 49 118
e 49 126
e 50 51
e 50 52
e 50 53
e 50 54
e 50 55
e 50 56
e 50 80
e 50 89
e 50 94
e 50 108
e 50 119
e 50 127
e 50 137
e 51 52
e 51 53
e 51 54
e 51 55
e 51 56
e 51 62
e 51 81
e 51 97
e 51 110
e 51 120
e 51 138
e 52 53
e 52 54
e 52 55
e 52 56
e 52 63
e 52 71
e 52 82
e 52 98
e 53 54
e 53 55
e 53 56
e 53 72
e 53 83
e 53 99
e 53 130
e 54 55
e 54 56
e 54 64
e 54 73
e 54 84
e 54 100
e 54 111
e 54 121
e 54 131
e 55 56
e 55 66
e 55 76
e 55 86
e 55 92
e 55 103
e 55 114
e 55 123
e 55 132
e 55 140
e 56 67
e 56 77
e 56 105
e 56 124
e 56 134
e 56 141
e 57 58
e 57 59
e 57 60
e 57 61
e 57 62
e 57 63
e 57 64
e 57 65
e 57 66
e 57 67
e 57 68
e 57 78
e 57 93
e 57 106
e 57 116
e 57 125
e 57 135
e 58 59
e 58 60
e 58 61
e 58 62
e 58 63
e 58 64
e 58 65
e 58 66
e 58 67
e 58 69
e 58 87
e 58 117
e 58 136
e 59 60
e 59 61
e 59 62
e 59 63
e 59 64
e 59 65
e 59 66
e 59 67
e 59 70
e 59 79
e 59 88
e 59 107
e 59 118
e 59 126
e 60 61
e 60 62
e 60 63
e 60 64
e 60 65
e 60 66
e 60 67
e 60 90
e 60 95
e 60 109
e 60 128
e 61 62
e 61 63
e 61 64
e 61 65
e 61 66
e 61 67
e 61 96
e 61 129
e 62 63
e 62 64
e 62 65
e 62 66
e 62 67
e 62 81
e 62 97
e 62 110
e 62 120
e 62 138
e 63 64
e 63 65
e 63 66
e 63 67
e 63 71
e 63 82
e 63 98
e 64 65
e 64 66
e 64 67
e 64 73
e 64 84
e 64 100
e 64 111
e 64 121
e 64 131
e 65 66
e 65 67
e 65 75
e 65 85
e 65 91
e 65 102
e 65 113
e 66 67
e 66 76
e 66 86
e 66 92
e 66 103
e 66 114
e 66 123
e 66 132
e 66 140
e 67 77
e 67 105
e 67 124
e 67 134
e 67 141
e 68 69
e 68 70
e 68 71
e 68 72
e 68 73
e 68 74
e 68 75
e 68 76
e 68 77
e 68 78
e 68 93
e 68 106
e 68 116
e 68 125
e 68 135
e 69 70
e 69 71
e 69 72
e 69 73
e 69 74
e 69 75
e 69 76
e 69 77
e 69 87
e 69 117
e 69 136
e 70 71
e 70 72
e 70 73
e 70 74
e 70 75
e 70 76
e 70 77
e 70 79
e 70 88
e 70 107
e 70 118
e 70 126
e 71 72
e 71 73
e 71 74
e 71 75
e 71 76
e 71 77
e 71 82
e 71 98
e 72 73
e 72 74
e 72 75
e 72 76
e 72 77
e 72 83
e 72 99
e 72 130
e 73 74
e 73 75
e 73 76
e 73 77
e 73 84
e 73 100
e 73 111
e 73 121
e 73 131
e 74 75
e 74 76
e 74 77
e 74 101
e 74 112
e 74 122
e 74 139
e 75 76
e 75 77
e 75 85
e 75 91
e 75 102
e 75 113
e 76 77
e 76 86
e 76 92
e 76 103
e 76 114
e 76 123
e 76 132
e 76 140
e 77 105
e 77 124
e 77 134
e 77 141
e 78 79
e 78 80
e 78 81
e 78 82
e 78 83
e 78 84
e 78 85
e 78 86
e 78 93
e 78 106
e 78 116
e 78 125
e 78 135
e 79 80
e 79 81
e 79 82
e 79 83
e 79 84
e 79 85
e 79 86
e 79 88
e 79 107
e 79 118
e 79 126
e 80 81
e 80 82
e 80 83
e 80 84
e 80 85
e 80 86
e 80 89
e 80 94
e 80 108
e 80 119
e 80 127
e 80 137
e 81 82
e 81 83
e 81 84
e 81 85
e 81 86
e 81 97
e 81 110
e 81 120
e 81 138
e 82 83
e 82 84
e 82 85
e 82 86
e 82 98
e 83 84
e 83 85
e 83 86
e 83 99
e 83 130
e 84 85
e 84 86
e 84 100
e 84 111
e 84 121
e 84 131
e 85 86
e 85 91
e 85 102
e 85 113
e 86 92
e 86 103
e 86 114
e 86 123
e 86 132
e 86 140
e 87 88
e 87 89
e 87 90
e 87 91
e 87 92
e 87 117
e 87 136
e 88 89
e 88 90
e 88 91
e 88 92
e 88 107
e 88 118
e 88 126
e 89 90
e 89 91
e 89 92
e 89 94
e 89 108
e 89 119
e 89 127
e 89 137
e 90 91
e 90 92
e 90 95
e 90 109
e 90 128
e 91 92
e 91 102
e 91 113
e 92 103
e 92 114
e 92 123
e 92 132
e 92 140
e 93 94
e 93 95
e 93 96
e 93 97
e 93 98
e 93 99
e 93 100
e 93 101
e 93 102
e 93 103
e 93 104
e 93 105
e 93 106
e 93 116
e 93 125
e 93 135
e 94 95
e 94 96
e 94 97
e 94 98
e 94 99
e 94 100
e 94 101
e 94 102
e 94 103
e 94 104
e 94 105
e 94 108
e 94 119
e 94 127
e 94 137
e 95 96
e 95 97
e 95 98
e 95 99
e 95 100
e 95 101
e 95 102
e 95 103
e 95 104
e 95 105
e 95 109
e 95 128
e 96 97
e 96 98
e 96 99
e 96 100
e 96 101
e 96 102
e 96 103
e 96 104
e 96 105
e 96 129
e 97 98
e 97 99
e 97 100
e 97 101
e 97 102
e 97 103
e 97 104
e 97 105
e 97 110
e 97 120
e 97 138
e 98 99
e 98 100
e 98 101
e 98 102
e 98 103
e 98 104
e 98 105
e 99 100
e 99 101
e 99 102
e 99 103
e 99 104
e 99 105
e 99 130
e 100 101
e 100 102
e 100 103
e 100 104
e 100 105
e 100 111
e 100 121
e 100 131
e 101 102
e 101 103
e 101 104
e 101 105
e 101 112
e 101 122
e 101 139
e 102 103
e 102 104
e 102 105
e 102 113
e 103 104
e 103 105
e 103 114
e 103 123
e 103 132
e 103 140
e 104 105
e 104 115
e 104 133
e 105 124
e 105 134
e 105 141
e 106 107
e 106 108
e 106 109
e 106 110
e 106 111
e 106 112
e 106 113
e 106 114
e 106 115
e 106 116
e 106 125
e 106 135
e 107 108
e 107 109
e 107 110
e 107 111
e 107 112
e 107 113
e 107 114
e 107 115
e 107 118
e 107 126
e 108 109
e 108 110
e 108 111
e 108 112
e 108 113
e 108 114
e 108 115
e 108 119
e 108 127
e 108 137
e 109 110
e 109 111
e 109 112
e 109 113
e 109 114
e 109 115
e 109 128
e 110 111
e 110 112
e 110 113
e 110 114
e 110 115
e 110 120
e 110 138
e 111 112
e 111 113
e 111 114
e 111 115
e 111 121
e 111 131
e 112 113
e 112 114
e 112 115
e 112 122
e 112 139
e 113 114
e 113 115
e 114 115
e 114 123
e 114 132
e 114 140
e 115 133
e 116 117
e 116 118
e 116 119
e 116 120
e 116 121
e 116 122
e 116 123
e 116 124
e 116 125
e 116 135
e 117 118
e 117 119
e 117 120
e 117 121
e 117 122
e 117 123
e 117 124
e 117 136
e 118 119
e 118 120
e 118 121
e 118 122
e 118 123
e 118 124
e 118 126
e 119 120
e 119 121
e 119 122
e 119 123
e 119 124
e 119 127
e 119 137
e 120 121
e 120 122
e 120 123
e 120 124
e 120 138
e 121 122
e 121 123
e 121 124
e 121 131
e 122 123
e 122 124
e 122 139
e 123 124
e 123 132
e 123 140
e 124 134
e 124 141
e 125 126
e 125 127
e 125 128
e 125 129
e 125 130
e 125 131
e 125 132
e 125 133
e 125 134
e 125 135
e 126 127
e 126 128
e 126 129
e 126 130
e 126 131
e 126 132
e 126 133
e 126 134
e 127 128
e 127 129
e 127 130
e 127 131
e 127 132
e 127 133
e 127 134
e 127 137
e 128 129
e 128 130
e 128 131
e 128 132
e 128 133
e 128 134
e 129 130
e 129 131
e 129 132
e 129 133
e 129 134
e 130 131
e 130 132
e 130 133
e 130 134
e 131 132
e 131 133
e 131 134
e 132 133
e 132 134
e 132 140
e 133 134
e 134 141
e 135 136
e 135 137
e 135 138
e 135 139
e 135 140
e 135 141
e 136 137
e 136 138
e 136 139
e 136 140
e 136 141
e 137 138
e 137 139
e 137 140
e 137 141
e 138 139
e 138 140
e 138 141
e 139 140
e 139 141
e 140 141
